Norinori/fichier_entr2.cnf
c Projet Norinori
p cnf 136 20
c
c
1 2 6 11 0
2 6 11 12 0
6 11 12 1 0
11 12 1 2 0
12 1 2 6 0
-1 -2 -6 0
-1 -2 -11 0
-1 -2 -12 0
-1 -6 -11 0
-1 -6 -12 0
-1 -11 -12 0
-2 -6 -11 0
-2 -6 -12 0
-2 -11 -12 0
-6 -11 -12 0
3 4 7 8 0
4 7 8 9 0
7 8 9 3 0
8 9 3 4 0
9 3 4 7 0
-3 -4 -7 0
-3 -4 -8 0
-3 -4 -9 0
-3 -7 -8 0
-3 -7 -9 0
-3 -8 -9 0
-4 -7 -8 0
-4 -7 -9 0
-4 -8 -9 0
-7 -8 -9 0
5 10 0
10 15 0
15 5 0
-5 -10 -15 0
13 16 17 0
16 17 18 0
17 18 13 0
18 13 16 0
-13 -16 -17 0
-13 -16 -18 0
-13 -17 -18 0
-16 -17 -18 0
14 19 0
19 20 0
20 14 0
-14 -19 -20 0
-1 -2 -6 0
2 6 -1 0
-2 -1 -3 0
-2 -1 -7 0
-2 -3 -7 0
1 3 7 -2 0
-6 -1 -11 0
-6 -1 -7 0
-6 -11 -7 0
1 11 7 -6 0
-11 -6 -12 0
-11 -6 -16 0
-11 -12 -16 0
6 12 16 -11 0
-12 -11 -7 0
-12 -11 -13 0
-12 -11 -17 0
-12 -7 -13 0
-12 -7 -17 0
-12 -13 -17 0
11 7 13 17 -12 0
-3 -2 -4 0
-3 -2 -8 0
-3 -4 -8 0
2 4 8 -3 0
-4 -3 -9 0
-4 -3 -5 0
-4 -9 -5 0
3 9 5 -4 0
-7 -2 -6 0
-7 -2 -12 0
-7 -2 -8 0
-7 -6 -12 0
-7 -6 -8 0
-7 -12 -8 0
2 6 12 8 -7 0
-8 -3 -7 0
-8 -3 -9 0
-8 -3 -13 0
-8 -7 -9 0
-8 -7 -13 0
-8 -9 -13 0
3 7 9 13 -8 0
-9 -4 -8 0
-9 -4 -10 0
-9 -4 -14 0
-9 -8 -10 0
-9 -8 -14 0
-9 -10 -14 0
4 8 10 14 -9 0
-5 -4 -10 0
4 10 -5 0
-10 -9 -5 0
-10 -9 -15 0
-10 -5 -15 0
9 5 15 -10 0
-15 -10 -14 0
-15 -10 -20 0
-15 -14 -20 0
10 14 20 -15 0
-13 -12 -8 0
-13 -12 -18 0
-13 -12 -14 0
-13 -8 -18 0
-13 -8 -14 0
-13 -18 -14 0
12 8 18 14 -13 0
-16 -11 -17 0
11 17 -16 0
-17 -12 -16 0
-17 -12 -18 0
-17 -16 -18 0
12 16 18 -17 0
-18 -13 -17 0
-18 -13 -19 0
-18 -17 -19 0
13 17 19 -18 0
-14 -9 -15 0
-14 -9 -13 0
-14 -9 -19 0
-14 -15 -13 0
-14 -15 -19 0
-14 -13 -19 0
9 15 13 19 -14 0
-19 -18 -14 0
-19 -18 -20 0
-19 -14 -20 0
18 14 20 -19 0
-20 -15 -19 0
15 19 -20 0
