Norinori/Norinori/fichier_entr2
5
4
5
1 2 6 11 12
3 4 7 8 9
5 10 15
13 16 17 18
14 19 20
